TCS_Benchmarks/redos_fix/snort4_output_distinct_267_266_17_0.txt
([^']+)(\s+)
([^']+)((%[^0-9A-Fa-f]|,)+\.[sS][tT][oO][pP])(\s+)